(declare-fun var0 () String)
(declare-fun var1 () String)
(declare-fun var2 () String)
(declare-fun var3 () String)
(declare-fun var4 () String)
(declare-fun var5 () String)
(declare-fun var6 () String)
(declare-fun var7 () String)
(declare-fun var8 () String)
(declare-fun var9 () String)
(declare-fun var10 () String)
(declare-fun var11 () String)
(declare-fun var12 () String)
(declare-fun var13 () String)
(declare-fun var14 () String)
(declare-fun var15 () String)
(declare-fun var16 () String)
(declare-fun var17 () String)
(declare-fun var18 () String)
(declare-fun var19 () String)
(declare-fun var20 () String)
(declare-fun var21 () String)
(declare-fun var22 () String)
(declare-fun var23 () String)
(declare-fun var24 () String)
(declare-fun var25 () String)
(declare-fun var26 () String)
(declare-fun var27 () String)
(declare-fun var28 () String)
(declare-fun var29 () String)
(declare-fun var30 () String)
(declare-fun var31 () String)
(declare-fun var32 () String)
(declare-fun var33 () String)
(declare-fun var34 () String)
(declare-fun var35 () String)
(declare-fun var36 () String)
(declare-fun var37 () String)
(declare-fun var38 () String)
(declare-fun var39 () String)
(declare-fun var40 () String)
(declare-fun var41 () String)
(declare-fun var42 () String)
(declare-fun var43 () String)
(declare-fun var44 () String)
(declare-fun var45 () String)
(declare-fun var46 () String)
(declare-fun var47 () String)
(declare-fun var48 () String)
(declare-fun var49 () String)
(declare-fun var50 () String)
(declare-fun var51 () String)
(declare-fun var52 () String)
(declare-fun var53 () String)
(declare-fun var54 () String)
(declare-fun var55 () String)
(declare-fun var56 () String)
(declare-fun var57 () String)
(declare-fun var58 () String)
(declare-fun var59 () String)
(declare-fun var60 () String)
(assert (= var0 (Concat var1 var2)))
(assert (= var2 (Concat var3 var4)))
(assert (= var4 (Concat var5 var6)))
(assert (= var6 (Concat var7 var8)))
(assert (= var8 (Concat var9 var10)))
(assert (= var10 (Concat var11 var12)))
(assert (= var12 (Concat var13 var14)))
(assert (= var14 (Concat var15 var16)))
(assert (= var16 (Concat var17 var18)))
(assert (= var18 (Concat var19 var20)))
(assert (= var20 (Concat var21 var22)))
(assert (= var22 (Concat var23 var24)))
(assert (= var24 (Concat var25 var26)))
(assert (= var26 (Concat var27 var28)))
(assert (= var28 (Concat var29 var30)))
(assert (= var30 (Concat var31 var32)))
(assert (= var32 (Concat var33 var34)))
(assert (= var34 (Concat var35 var36)))
(assert (= var36 (Concat var37 var38)))
(assert (= var38 (Concat var39 var40)))
(assert (= var40 (Concat var41 var42)))
(assert (= var42 (Concat var43 var44)))
(assert (= var44 (Concat var45 var46)))
(assert (= var46 (Concat var47 var48)))
(assert (= var48 (Concat var49 var50)))
(assert (= var50 (Concat var51 var52)))
(assert (= var52 (Concat var53 var54)))
(assert (= var54 (Concat var55 var56)))
(assert (= var56 (Concat var57 var58)))
(assert (= var58 (Concat var59 var60)))
(assert (= var0 "solution"))
(assert (= "-" (CharAt var13 978)))
(assert (= "y" (CharAt var41 71)))
(assert (= "C" (CharAt var50 895)))
(assert (= "!" (CharAt var52 256)))
(assert (= "5" (CharAt var11 387)))
(assert (= "L" (CharAt var27 71)))
(assert (= "E" (CharAt var46 698)))
(assert (= ":" (CharAt var55 859)))
(assert (= ":" (CharAt var58 921)))
(assert (= "9" (CharAt var20 308)))
(assert (= "N" (CharAt var54 136)))
(assert (= "m" (CharAt var12 347)))
(assert (= "n" (CharAt var26 657)))
(assert (= "j" (CharAt var31 360)))
(assert (= "e" (CharAt var45 363)))
(assert (= "o" (CharAt var29 12)))
(assert (= "|" (CharAt var38 89)))
(assert (= "z" (CharAt var55 577)))
(assert (= "u" (CharAt var32 460)))
(assert (= "\"" (CharAt var56 574)))
(assert (= ";" (CharAt var35 131)))
(assert (= "o" (CharAt var36 116)))
(assert (= "X" (CharAt var51 386)))
(assert (= "]" (CharAt var39 334)))
(assert (= "9" (CharAt var8 466)))
(assert (= "@" (CharAt var39 98)))
(assert (= "z" (CharAt var33 237)))
(assert (= "!" (CharAt var0 675)))
(assert (= "5" (CharAt var37 914)))
(assert (= "p" (CharAt var32 766)))
(assert (= "]" (CharAt var40 376)))
(assert (= "/" (CharAt var49 636)))
(assert (= "#" (CharAt var4 951)))
(assert (= "d" (CharAt var19 475)))
(assert (= ";" (CharAt var24 509)))
(assert (= ">" (CharAt var45 544)))
(assert (= "<" (CharAt var32 283)))
(assert (= "g" (CharAt var12 190)))
(assert (= "?" (CharAt var20 91)))
(assert (= "(" (CharAt var47 859)))
(assert (= "c" (CharAt var47 319)))
(assert (= "|" (CharAt var16 649)))
(assert (= "S" (CharAt var16 460)))
(assert (= "=" (CharAt var54 775)))
(assert (= "J" (CharAt var41 905)))
(assert (= "o" (CharAt var9 745)))
(assert (= "}" (CharAt var13 135)))
(assert (= "q" (CharAt var41 696)))
(assert (= "4" (CharAt var24 914)))
(assert (= "a" (CharAt var9 906)))
(assert (= "P" (CharAt var44 159)))
(assert (= "G" (CharAt var19 538)))
(assert (= "X" (CharAt var17 152)))
(assert (= "Y" (CharAt var8 356)))
(assert (= "^" (CharAt var13 664)))
(assert (= "?" (CharAt var29 288)))
(assert (= "v" (CharAt var9 741)))
(assert (= "p" (CharAt var33 457)))
(assert (= "A" (CharAt var57 916)))
(assert (= "B" (CharAt var43 612)))
(assert (= "*" (CharAt var21 490)))
(assert (= "A" (CharAt var39 12)))
(assert (= "T" (CharAt var0 722)))
(assert (= "]" (CharAt var51 410)))
(assert (= "<" (CharAt var29 307)))
(assert (= "b" (CharAt var24 941)))
(assert (= "o" (CharAt var6 595)))
(assert (= "5" (CharAt var34 224)))
(assert (= "X" (CharAt var47 342)))
(assert (= "P" (CharAt var21 49)))
(assert (= "Q" (CharAt var27 126)))
(assert (= "L" (CharAt var8 26)))
(assert (= "<" (CharAt var9 974)))
(assert (= "7" (CharAt var53 953)))
(assert (= "#" (CharAt var15 838)))
(assert (= "D" (CharAt var17 305)))
(assert (= "E" (CharAt var55 908)))
(assert (= "S" (CharAt var48 989)))
(assert (= "4" (CharAt var8 104)))
(assert (= "y" (CharAt var0 85)))
(assert (= "V" (CharAt var60 479)))
(assert (= "n" (CharAt var31 992)))
(assert (= "0" (CharAt var47 698)))
(assert (= "@" (CharAt var12 590)))
(assert (= "0" (CharAt var33 471)))
(assert (= "g" (CharAt var30 375)))
(assert (= "f" (CharAt var18 659)))
(assert (= "8" (CharAt var7 268)))
(assert (= "_" (CharAt var11 689)))
(assert (= "e" (CharAt var18 593)))
(assert (= "I" (CharAt var27 828)))
(assert (= "=" (CharAt var40 37)))
(assert (= "'" (CharAt var49 473)))
(assert (= "5" (CharAt var36 814)))
(assert (= "{" (CharAt var31 328)))
(assert (= "1" (CharAt var21 481)))
(assert (= "#" (CharAt var25 861)))
(assert (= "!" (CharAt var38 146)))
(assert (= "c" (CharAt var58 989)))
(assert (= "a" (CharAt var9 660)))
(assert (= "r" (CharAt var51 90)))
(assert (= "'" (CharAt var59 90)))
(assert (= "f" (CharAt var28 448)))
(assert (= "a" (CharAt var21 243)))
(assert (= "H" (CharAt var16 882)))
(assert (= "F" (CharAt var34 726)))
(assert (= "Q" (CharAt var24 642)))
(assert (= "U" (CharAt var39 903)))
(assert (= "D" (CharAt var24 562)))
(assert (= "j" (CharAt var29 111)))
(assert (= "7" (CharAt var42 285)))
(assert (= "R" (CharAt var13 602)))
(assert (= "V" (CharAt var2 939)))
(assert (= "r" (CharAt var9 187)))
(assert (= "O" (CharAt var18 624)))
(assert (= "i" (CharAt var7 650)))
(assert (= "<" (CharAt var51 439)))
(assert (= "s" (CharAt var18 9)))
(assert (= "N" (CharAt var34 91)))
(assert (= "H" (CharAt var28 418)))
(assert (= "/" (CharAt var42 93)))
(assert (= "A" (CharAt var1 336)))
(assert (= "a" (CharAt var19 798)))
(assert (= "o" (CharAt var4 737)))
(assert (= "d" (CharAt var35 257)))
(assert (= "#" (CharAt var15 168)))
(assert (= "H" (CharAt var46 927)))
(assert (= "z" (CharAt var12 427)))
(assert (= "_" (CharAt var34 20)))
(assert (= "^" (CharAt var7 861)))
(assert (= "Q" (CharAt var8 398)))
(assert (= "0" (CharAt var49 189)))
(assert (= "0" (CharAt var9 126)))
(assert (= "I" (CharAt var8 144)))
(assert (= ":" (CharAt var53 458)))
(assert (= "J" (CharAt var25 160)))
(assert (= "p" (CharAt var59 486)))
(assert (= "V" (CharAt var10 892)))
(assert (= "0" (CharAt var46 239)))
(assert (= "!" (CharAt var21 607)))
(assert (= "|" (CharAt var34 562)))
(assert (= "I" (CharAt var27 255)))
(assert (= "^" (CharAt var18 155)))
(assert (= "+" (CharAt var18 6)))
(assert (= "0" (CharAt var15 166)))
(assert (= "a" (CharAt var60 454)))
(assert (= "%" (CharAt var30 970)))
(assert (= "j" (CharAt var4 149)))
(assert (= "{" (CharAt var57 6)))
(assert (= "z" (CharAt var5 932)))
(assert (= "b" (CharAt var15 218)))
(assert (= "c" (CharAt var35 279)))
(assert (= ">" (CharAt var5 391)))
(assert (= "Y" (CharAt var23 457)))
(assert (= "j" (CharAt var2 776)))
(assert (= "4" (CharAt var3 607)))
(assert (= "F" (CharAt var11 791)))
(assert (= "E" (CharAt var16 729)))
(assert (= "~" (CharAt var57 157)))
(assert (= "9" (CharAt var19 979)))
(assert (= "<" (CharAt var43 210)))
(assert (= "d" (CharAt var24 198)))
(assert (= "z" (CharAt var1 153)))
(assert (= "A" (CharAt var9 729)))
(assert (= "J" (CharAt var12 604)))
(assert (= "c" (CharAt var49 688)))
(assert (= "!" (CharAt var52 933)))
(assert (= "L" (CharAt var53 544)))
(assert (= "[" (CharAt var51 758)))
(assert (= "\"" (CharAt var14 273)))
(assert (= "L" (CharAt var18 541)))
(assert (= "{" (CharAt var36 274)))
(assert (= "v" (CharAt var2 494)))
(assert (= "A" (CharAt var45 565)))
(assert (= "o" (CharAt var26 328)))
(assert (= "&" (CharAt var35 293)))
(assert (= "\"" (CharAt var7 656)))
(assert (= "-" (CharAt var23 730)))
(assert (= "]" (CharAt var39 359)))
(assert (= "o" (CharAt var53 115)))
(assert (= "M" (CharAt var34 375)))
(assert (= ";" (CharAt var12 116)))
(assert (= "J" (CharAt var43 208)))
(assert (= "\"" (CharAt var42 789)))
(assert (= "`" (CharAt var44 422)))
(assert (= "5" (CharAt var55 574)))
(assert (= "[" (CharAt var16 327)))
(assert (= "f" (CharAt var25 253)))
(assert (= "!" (CharAt var41 778)))
(assert (= "V" (CharAt var47 752)))
(assert (= "-" (CharAt var48 930)))
(assert (= "w" (CharAt var1 934)))
(assert (= "L" (CharAt var13 339)))
(assert (= "W" (CharAt var33 878)))
(assert (= "V" (CharAt var39 520)))
(assert (= "E" (CharAt var23 36)))
(assert (= "L" (CharAt var48 123)))
(assert (= "k" (CharAt var21 967)))
(assert (= "3" (CharAt var34 566)))
(assert (= "T" (CharAt var50 363)))
(assert (= "S" (CharAt var6 660)))
(assert (= "l" (CharAt var14 975)))
(assert (= "3" (CharAt var33 937)))
(assert (= "o" (CharAt var60 78)))
(assert (= "g" (CharAt var43 752)))
(assert (= "'" (CharAt var50 640)))
(assert (= "f" (CharAt var18 727)))
(assert (= "4" (CharAt var37 905)))
(assert (= "I" (CharAt var37 442)))
(assert (= "W" (CharAt var32 441)))
(assert (= "Z" (CharAt var57 896)))
(assert (= "K" (CharAt var28 738)))
(assert (= "(" (CharAt var32 670)))
(assert (= "R" (CharAt var4 814)))
(assert (= "^" (CharAt var21 190)))
(assert (= "W" (CharAt var25 271)))
(assert (= "r" (CharAt var35 35)))
(assert (= "9" (CharAt var35 708)))
(assert (= "4" (CharAt var13 472)))
(assert (= "W" (CharAt var11 604)))
(assert (= "l" (CharAt var0 249)))
(assert (= "w" (CharAt var59 923)))
(assert (= "t" (CharAt var40 4)))
(assert (= "C" (CharAt var54 248)))
(assert (= "$" (CharAt var59 830)))
(assert (= "5" (CharAt var50 943)))
(assert (= "N" (CharAt var31 552)))
(assert (= "/" (CharAt var1 580)))
(assert (= "V" (CharAt var60 794)))
(assert (= "Z" (CharAt var39 681)))
(assert (= "G" (CharAt var30 953)))
(assert (= "Q" (CharAt var33 926)))
(assert (= "t" (CharAt var59 321)))
(assert (= "[" (CharAt var24 253)))
(assert (= "*" (CharAt var14 119)))
(assert (= "E" (CharAt var54 49)))
(assert (= "`" (CharAt var4 706)))
(assert (= "w" (CharAt var0 857)))
(assert (= "." (CharAt var13 349)))
(assert (= "." (CharAt var45 488)))
(assert (= "l" (CharAt var29 540)))
(assert (= "d" (CharAt var2 781)))
(assert (= "+" (CharAt var30 945)))
(assert (= "2" (CharAt var14 193)))
(assert (= ")" (CharAt var27 791)))
(assert (= "\\" (CharAt var43 343)))
(assert (= "|" (CharAt var58 569)))
(assert (= "#" (CharAt var39 280)))
(assert (= "#" (CharAt var46 107)))
(assert (= "3" (CharAt var9 967)))
(assert (= "!" (CharAt var39 753)))
(assert (= "@" (CharAt var55 561)))
(assert (= "K" (CharAt var34 388)))
(assert (= "T" (CharAt var47 923)))
(assert (= "2" (CharAt var60 87)))
(assert (= "a" (CharAt var55 559)))
(assert (= "(" (CharAt var51 675)))
(assert (= "," (CharAt var29 488)))
(assert (= "`" (CharAt var48 512)))
(assert (= "F" (CharAt var35 710)))
(assert (= "G" (CharAt var8 238)))
(assert (= "{" (CharAt var0 472)))
(assert (= "c" (CharAt var40 226)))
(assert (= "H" (CharAt var9 102)))
(assert (= "j" (CharAt var52 521)))
(assert (= "N" (CharAt var22 787)))
(assert (= "s" (CharAt var15 448)))
(assert (= "6" (CharAt var5 795)))
(assert (= "/" (CharAt var54 521)))
(assert (= "q" (CharAt var0 545)))
(assert (= "X" (CharAt var48 610)))
(assert (= "K" (CharAt var18 319)))
(assert (= "d" (CharAt var39 49)))
(assert (= "v" (CharAt var12 491)))
(assert (= "5" (CharAt var38 138)))
(assert (= "e" (CharAt var32 917)))
(assert (= "y" (CharAt var22 366)))
(assert (= "\"" (CharAt var51 364)))
(assert (= "X" (CharAt var17 573)))
(assert (= "~" (CharAt var3 850)))
(assert (= "j" (CharAt var42 236)))
(assert (= "!" (CharAt var41 508)))
(assert (= "`" (CharAt var15 904)))
(assert (= "z" (CharAt var33 938)))
(assert (= "b" (CharAt var50 158)))
(assert (= "6" (CharAt var16 187)))
(assert (= "D" (CharAt var11 416)))
(assert (= "i" (CharAt var54 726)))
(assert (= "t" (CharAt var6 528)))
(assert (= "Y" (CharAt var9 606)))
(assert (= "<" (CharAt var23 469)))
(assert (= ";" (CharAt var50 647)))
(assert (= "l" (CharAt var39 497)))
(assert (= "L" (CharAt var54 9)))
(assert (= "B" (CharAt var10 190)))
(assert (= "\\" (CharAt var2 522)))
(assert (= "w" (CharAt var25 590)))
(assert (= "v" (CharAt var7 521)))
(assert (= "p" (CharAt var18 683)))
(assert (= "[" (CharAt var35 557)))
(assert (= "L" (CharAt var39 390)))
(assert (= "u" (CharAt var36 810)))
(assert (= "L" (CharAt var45 175)))
(assert (= "]" (CharAt var31 57)))
(assert (= "H" (CharAt var26 103)))
(assert (= "y" (CharAt var56 435)))
(assert (= "Q" (CharAt var52 254)))
(assert (= "b" (CharAt var38 65)))
(assert (= "@" (CharAt var36 5)))
(assert (= "M" (CharAt var54 321)))
(assert (= "k" (CharAt var33 465)))
(assert (= "K" (CharAt var46 264)))
(assert (= "z" (CharAt var16 252)))
(assert (= "p" (CharAt var21 763)))
(assert (= "b" (CharAt var41 381)))
(assert (= "4" (CharAt var44 524)))
(assert (= "," (CharAt var54 2)))
(assert (= "-" (CharAt var3 269)))
(assert (= "/" (CharAt var52 929)))
(assert (= "K" (CharAt var18 18)))
(assert (= "#" (CharAt var37 142)))
(assert (= "J" (CharAt var47 103)))
(assert (= "W" (CharAt var56 151)))
(assert (= "o" (CharAt var3 677)))
(assert (= "|" (CharAt var25 468)))
(assert (= "B" (CharAt var25 917)))
(assert (= "\"" (CharAt var12 284)))
(assert (= ";" (CharAt var46 979)))
(assert (= "2" (CharAt var45 171)))
(assert (= "S" (CharAt var25 901)))
(assert (= "L" (CharAt var58 298)))
(assert (= "w" (CharAt var37 72)))
(assert (= "[" (CharAt var15 545)))
(assert (= "y" (CharAt var41 740)))
(assert (= "b" (CharAt var48 516)))
(assert (= "J" (CharAt var25 214)))
(assert (= "+" (CharAt var30 819)))
(assert (= "l" (CharAt var27 827)))
(assert (= "5" (CharAt var6 801)))
(assert (= "c" (CharAt var31 265)))
(assert (= "d" (CharAt var54 687)))
(assert (= "`" (CharAt var25 373)))
(assert (= "_" (CharAt var38 456)))
(assert (= "J" (CharAt var15 656)))
(assert (= "g" (CharAt var50 202)))
(assert (= "`" (CharAt var32 294)))
(assert (= "b" (CharAt var27 953)))
(assert (= "5" (CharAt var53 646)))
(assert (= "4" (CharAt var22 720)))
(assert (= "S" (CharAt var37 487)))
(assert (= "-" (CharAt var17 397)))
(assert (= "K" (CharAt var45 714)))
(assert (= "_" (CharAt var4 815)))
(assert (= "-" (CharAt var31 580)))
(assert (= "," (CharAt var55 290)))
(assert (= "7" (CharAt var15 118)))
(assert (= "h" (CharAt var23 734)))
(assert (= "b" (CharAt var32 96)))
(assert (= "?" (CharAt var4 872)))
(assert (= "u" (CharAt var60 377)))
(assert (= "s" (CharAt var3 547)))
(assert (= "*" (CharAt var40 982)))
(assert (= "n" (CharAt var1 778)))
(assert (= "z" (CharAt var27 543)))
(assert (= "\"" (CharAt var51 891)))
(assert (= "<" (CharAt var29 165)))
(assert (= "o" (CharAt var20 332)))
(assert (= "B" (CharAt var43 324)))
(assert (= "a" (CharAt var11 407)))
(assert (= "'" (CharAt var52 745)))
(assert (= "6" (CharAt var23 518)))
(assert (= "9" (CharAt var40 609)))
(assert (= "*" (CharAt var60 7)))
(assert (= "m" (CharAt var20 20)))
(assert (= "^" (CharAt var58 11)))
(assert (= "\\" (CharAt var43 271)))
(assert (= "J" (CharAt var10 199)))
(assert (= "$" (CharAt var21 612)))
(assert (= "C" (CharAt var44 327)))
(assert (= "P" (CharAt var1 25)))
(assert (= "(" (CharAt var37 46)))
(assert (= "G" (CharAt var56 461)))
(assert (= "5" (CharAt var34 480)))
(assert (= "=" (CharAt var21 606)))
(assert (= "&" (CharAt var36 195)))
(assert (= "c" (CharAt var51 631)))
(assert (= "8" (CharAt var8 18)))
(assert (= "'" (CharAt var15 282)))
(assert (= "\"" (CharAt var12 929)))
(assert (= "V" (CharAt var57 151)))
(assert (= "C" (CharAt var28 559)))
(assert (= "Y" (CharAt var60 688)))
(assert (= "q" (CharAt var60 395)))
(assert (= "h" (CharAt var60 938)))
(assert (= "t" (CharAt var55 451)))
(assert (= "&" (CharAt var34 443)))
(assert (= "%" (CharAt var38 360)))
(assert (= "B" (CharAt var14 75)))
(assert (= "v" (CharAt var30 276)))
(assert (= "x" (CharAt var60 451)))
(assert (= "^" (CharAt var42 807)))
(assert (= "y" (CharAt var7 828)))
(assert (= "?" (CharAt var2 306)))
(assert (= "<" (CharAt var55 864)))
(assert (= "." (CharAt var41 418)))
(assert (= "6" (CharAt var13 691)))
(assert (= "U" (CharAt var16 731)))
(assert (= "y" (CharAt var19 55)))
(assert (= "P" (CharAt var44 766)))
(assert (= "c" (CharAt var47 600)))
(assert (= "_" (CharAt var35 672)))
(assert (= "b" (CharAt var38 835)))
(assert (= "-" (CharAt var43 700)))
(assert (= "Z" (CharAt var44 673)))
(assert (= "G" (CharAt var17 641)))
(assert (= "h" (CharAt var29 498)))
(assert (= ")" (CharAt var38 467)))
(assert (= "U" (CharAt var33 113)))
(assert (= "," (CharAt var56 340)))
(assert (= "h" (CharAt var56 458)))
(assert (= "}" (CharAt var15 465)))
(assert (= "q" (CharAt var12 977)))
(assert (= "u" (CharAt var48 709)))
(assert (= "{" (CharAt var60 463)))
(assert (= "H" (CharAt var7 231)))
(assert (= "^" (CharAt var52 858)))
(assert (= "6" (CharAt var16 620)))
(assert (= "C" (CharAt var5 219)))
(assert (= "*" (CharAt var34 863)))
(assert (= "=" (CharAt var19 477)))
(assert (= "K" (CharAt var0 913)))
(assert (= "g" (CharAt var30 569)))
(assert (= "b" (CharAt var30 93)))
(assert (= "\"" (CharAt var58 743)))
(assert (= "M" (CharAt var0 660)))
(assert (= "{" (CharAt var42 445)))
(assert (= "y" (CharAt var26 203)))
(assert (= "\\" (CharAt var35 965)))
(assert (= "R" (CharAt var22 958)))
(assert (= "t" (CharAt var18 468)))
(assert (= ")" (CharAt var1 686)))
(assert (= "y" (CharAt var36 943)))
(assert (= "s" (CharAt var15 896)))
(assert (= "-" (CharAt var12 886)))
(assert (= "'" (CharAt var21 954)))
(assert (= "q" (CharAt var58 27)))
(assert (= "L" (CharAt var49 546)))
(assert (= "8" (CharAt var29 847)))
(assert (= "h" (CharAt var9 780)))
(assert (= "j" (CharAt var3 691)))
(assert (= "7" (CharAt var9 155)))
(assert (= "," (CharAt var11 456)))
(assert (= "Q" (CharAt var10 895)))
(assert (= "Y" (CharAt var26 106)))
(assert (= "q" (CharAt var31 595)))
(assert (= "8" (CharAt var14 326)))
(assert (= "^" (CharAt var8 112)))
(assert (= "Z" (CharAt var54 84)))
(assert (= "," (CharAt var13 368)))
(assert (= "y" (CharAt var15 691)))
(assert (= "8" (CharAt var33 371)))
(assert (= "Z" (CharAt var20 710)))
(assert (= "c" (CharAt var0 204)))
(assert (= "$" (CharAt var9 33)))
(assert (= "7" (CharAt var29 128)))
(assert (= "W" (CharAt var44 600)))
(assert (= "\\" (CharAt var59 750)))
(assert (= "%" (CharAt var54 748)))
(assert (= "\"" (CharAt var18 884)))
(assert (= "n" (CharAt var49 119)))
(assert (= "e" (CharAt var3 932)))
(assert (= "^" (CharAt var46 805)))
(assert (= "/" (CharAt var22 755)))
(assert (= "J" (CharAt var25 338)))
(assert (= "g" (CharAt var52 377)))
(assert (= "z" (CharAt var36 204)))
(assert (= "`" (CharAt var20 777)))
(assert (= "O" (CharAt var34 788)))
(assert (= ":" (CharAt var26 863)))
(assert (= "1" (CharAt var8 175)))
(assert (= "{" (CharAt var29 931)))
(assert (= "X" (CharAt var8 883)))
(assert (= "1" (CharAt var33 50)))
(assert (= "n" (CharAt var43 988)))
(assert (= "R" (CharAt var58 59)))
(assert (= "+" (CharAt var42 466)))
(assert (= "!" (CharAt var30 628)))
(assert (= "7" (CharAt var35 320)))
(assert (= "7" (CharAt var0 127)))
(assert (= "m" (CharAt var43 12)))
(assert (= "i" (CharAt var4 451)))
(assert (= "r" (CharAt var55 92)))
(assert (= "\\" (CharAt var0 606)))
(assert (= "O" (CharAt var35 261)))
(assert (= "h" (CharAt var35 685)))
(assert (= "z" (CharAt var43 507)))
(assert (= "c" (CharAt var31 55)))
(assert (= "{" (CharAt var1 994)))
(assert (= "?" (CharAt var57 876)))
(assert (= "]" (CharAt var4 705)))
(assert (= "&" (CharAt var9 549)))
(assert (= "|" (CharAt var31 185)))
(assert (= "L" (CharAt var25 951)))
(assert (= "(" (CharAt var40 25)))
(assert (= "l" (CharAt var56 317)))
(assert (= "8" (CharAt var21 3)))
(assert (= "6" (CharAt var58 167)))
(assert (= "u" (CharAt var49 901)))
(assert (= "@" (CharAt var13 36)))
(assert (= "]" (CharAt var20 175)))
(assert (= "^" (CharAt var8 20)))
(assert (= "D" (CharAt var52 15)))
(assert (= "e" (CharAt var44 461)))
(assert (= "F" (CharAt var40 197)))
(assert (= "{" (CharAt var2 670)))
(assert (= "E" (CharAt var19 934)))
(assert (= "{" (CharAt var35 152)))
(assert (= "2" (CharAt var51 228)))
(assert (= "Z" (CharAt var28 866)))
(assert (= "J" (CharAt var35 438)))
(assert (= "x" (CharAt var44 622)))
(assert (= "6" (CharAt var38 237)))
(assert (= "G" (CharAt var30 959)))
(assert (= "^" (CharAt var59 982)))
(assert (= "C" (CharAt var32 52)))
(assert (= "b" (CharAt var41 286)))
(assert (= ":" (CharAt var50 417)))
(assert (= "'" (CharAt var42 265)))
(assert (= "n" (CharAt var7 660)))
(assert (= "/" (CharAt var55 527)))
(assert (= "^" (CharAt var33 651)))
(assert (= "g" (CharAt var43 304)))
(assert (= "^" (CharAt var28 191)))
(assert (= "H" (CharAt var12 760)))
(assert (= "#" (CharAt var25 726)))
(assert (= "{" (CharAt var9 321)))
(assert (= "F" (CharAt var39 583)))
(assert (= "F" (CharAt var3 299)))
(assert (= "Q" (CharAt var5 137)))
(assert (= "7" (CharAt var14 744)))
(assert (= "_" (CharAt var52 279)))
(assert (= "o" (CharAt var1 541)))
(assert (= "C" (CharAt var13 120)))
(assert (= "l" (CharAt var11 316)))
(assert (= "d" (CharAt var24 993)))
(assert (= "@" (CharAt var2 84)))
(assert (= "`" (CharAt var54 169)))
(assert (= "X" (CharAt var0 645)))
(assert (= "A" (CharAt var3 9)))
(assert (= "+" (CharAt var41 861)))
(assert (= ")" (CharAt var15 902)))
(assert (= "W" (CharAt var1 983)))
(assert (= "{" (CharAt var44 291)))
(assert (= "g" (CharAt var31 887)))
(assert (= "!" (CharAt var24 244)))
(assert (= "b" (CharAt var23 615)))
(assert (= "u" (CharAt var60 391)))
(assert (= "E" (CharAt var19 428)))
(assert (= "/" (CharAt var21 974)))
(assert (= "a" (CharAt var19 74)))
(assert (= "O" (CharAt var11 300)))
(assert (= "W" (CharAt var37 708)))
(assert (= "l" (CharAt var11 171)))
(assert (= "O" (CharAt var6 742)))
(assert (= "|" (CharAt var7 425)))
(assert (= "2" (CharAt var45 533)))
(assert (= "?" (CharAt var34 873)))
(assert (= "|" (CharAt var13 68)))
(assert (= "#" (CharAt var18 543)))
(assert (= "m" (CharAt var23 285)))
(assert (= "p" (CharAt var22 192)))
(assert (= "X" (CharAt var34 513)))
(assert (= "." (CharAt var45 963)))
(assert (= "b" (CharAt var43 296)))
(assert (= "j" (CharAt var25 67)))
(assert (= "m" (CharAt var52 79)))
(assert (= "U" (CharAt var13 627)))
(assert (= "%" (CharAt var14 138)))
(assert (= "g" (CharAt var24 728)))
(assert (= "Q" (CharAt var20 55)))
(assert (= "R" (CharAt var45 568)))
(assert (= "7" (CharAt var38 386)))
(assert (= "t" (CharAt var53 785)))
(assert (= "\"" (CharAt var32 726)))
(assert (= "x" (CharAt var24 8)))
(assert (= "|" (CharAt var6 594)))
(assert (= "t" (CharAt var53 43)))
(assert (= "~" (CharAt var56 379)))
(assert (= "G" (CharAt var26 212)))
(assert (= "q" (CharAt var28 320)))
(assert (= "w" (CharAt var43 592)))
(assert (= "|" (CharAt var46 822)))
(assert (= "\\" (CharAt var59 580)))
(assert (= "L" (CharAt var57 623)))
(assert (= "&" (CharAt var33 548)))
(assert (= "5" (CharAt var48 295)))
(assert (= "J" (CharAt var59 674)))
(assert (= "5" (CharAt var36 271)))
(assert (= ">" (CharAt var33 362)))
(assert (= "4" (CharAt var9 328)))
(assert (= "`" (CharAt var55 379)))
(assert (= "y" (CharAt var4 809)))
(assert (= "u" (CharAt var38 830)))
(assert (= "E" (CharAt var0 894)))
(assert (= ";" (CharAt var29 550)))
(assert (= "I" (CharAt var27 667)))
(assert (= "V" (CharAt var6 991)))
(assert (= "$" (CharAt var46 474)))
(assert (= "E" (CharAt var21 345)))
(assert (= "?" (CharAt var60 890)))
(assert (= "," (CharAt var54 629)))
(assert (= "`" (CharAt var45 877)))
(assert (= "{" (CharAt var52 24)))
(assert (= "L" (CharAt var47 157)))
(assert (= "E" (CharAt var29 706)))
(assert (= "G" (CharAt var3 37)))
(assert (= "g" (CharAt var7 746)))
(assert (= "h" (CharAt var53 398)))
(assert (= "c" (CharAt var15 493)))
(assert (= "R" (CharAt var57 18)))
(assert (= "b" (CharAt var33 527)))
(assert (= "A" (CharAt var3 682)))
(assert (= "_" (CharAt var54 103)))
(assert (= "8" (CharAt var27 106)))
(assert (= "^" (CharAt var31 663)))
(assert (= "F" (CharAt var16 462)))
(assert (= "n" (CharAt var12 221)))
(assert (= "P" (CharAt var27 264)))
(assert (= "$" (CharAt var50 984)))
(assert (= "I" (CharAt var20 30)))
(assert (= "(" (CharAt var52 404)))
(assert (= "9" (CharAt var19 91)))
(assert (= "=" (CharAt var15 173)))
(assert (= "e" (CharAt var19 819)))
(assert (= "_" (CharAt var45 246)))
(assert (= "a" (CharAt var11 275)))
(assert (= "g" (CharAt var54 204)))
(assert (= "D" (CharAt var21 785)))
(assert (= "@" (CharAt var35 735)))
(assert (= "W" (CharAt var42 805)))
(assert (= "z" (CharAt var1 348)))
(check-sat)